Generated structure
1.0
    11.33032670      0.00000000      0.00000000
     0.00000000     11.33032670      0.00000000
     0.00000000      0.00000000     11.33032670
Fe Ge
48 48
Direct
     0.10340370      0.12087396      0.09849507
     0.10725630      0.09608009      0.42859825
     0.09346649      0.10857487      0.75855220
     0.10146797      0.57097294      0.07340842
     0.10334001      0.60913093      0.40122937
     0.10916379      0.60538844      0.73100007
     0.59608252      0.10502024      0.07340842
     0.58790753      0.09238919      0.40351161
     0.53310058      0.05370239      0.73114332
     0.53628368      0.56296083      0.04843545
     0.56601291      0.56316219      0.37615070
     0.63431518      0.57935509      0.70345564
     0.14146735      0.42001560      0.22744062
     0.15540019      0.43431938      0.56077395
     0.22474639      0.45725326      0.89410707
     0.19683237      0.92535849      0.20391462
     0.18422405      0.91516415      0.53724796
     0.16967454      0.98006811      0.87058129
     0.67487126      0.41175885      0.22036167
     0.69655549      0.43968722      0.55369501
     0.68593651      0.47720359      0.88702813
     0.70281859      0.90184556      0.19683568
     0.68361751      0.93291377      0.53016901
     0.66222487      0.95001906      0.86350234
     0.32157886      0.23205886      0.29301607
     0.35511088      0.23918595      0.62635104
     0.32154720      0.22716572      0.95871320
     0.31449991      0.68023792      0.28593877
     0.32145513      0.72476504      0.61927210
     0.31357107      0.68022654      0.95171856
     0.82933782      0.24023916      0.29316072
     0.83327189      0.21983204      0.62649405
     0.82169272      0.25197608      0.95886515
     0.81464291      0.69239141      0.28608177
     0.81900059      0.72962311      0.61941510
     0.81371854      0.71906768      0.95187050
     0.41186629      0.30884617      0.11043730
     0.41796818      0.30672824      0.44806071
     0.43224761      0.26773216      0.78217955
     0.41195381      0.77567098      0.11486761
     0.37960765      0.81383687      0.43859203
     0.43281099      0.76831140      0.78153427
     0.89292363      0.37765689      0.08691128
     0.89263817      0.34133658      0.42453476
     0.90850384      0.25607112      0.75648504
     0.89315874      0.82796616      0.09134161
     0.85416492      0.87848279      0.41506603
     0.90920683      0.73236757      0.75800827
     0.44635377      0.44902363      0.28962124
     0.39449581      0.40739478      0.62201186
     0.42987903      0.47007518      0.96579881
     0.43622607      0.87743020      0.29596827
     0.47546444      0.95655117      0.62851002
     0.43622607      0.97441048      0.96263494
     0.93622607      0.42931088      0.29596827
     0.89697658      0.46058903      0.62950076
     0.93622607      0.49384131      0.94759474
     0.94257311      0.97316630      0.30231531
     0.97872024      0.98171429      0.63487005
     0.94257311      0.00591645      0.96898198
     0.32081915      0.13464568      0.10829680
     0.32574099      0.12284657      0.44163013
     0.32405999      0.00795867      0.77496347
     0.31775599      0.59009136      0.10859378
     0.38180838      0.62507312      0.44095219
     0.31871728      0.60426418      0.77430107
     0.79374563      0.04645769      0.08038799
     0.80553656      0.05472210      0.41372133
     0.79657927      0.96843189      0.74705466
     0.81627497      0.57639948      0.08163091
     0.81210196      0.53766783      0.41305892
     0.79507651      0.49112945      0.74639226
     0.20320706      0.38522996      0.07925816
     0.17233440      0.27293753      0.42988040
     0.19984848      0.33095715      0.75401767
     0.16483187      0.83006980      0.05134935
     0.15693676      0.79406613      0.40165281
     0.14925196      0.85414585      0.71665835
     0.66914388      0.32623979      0.05104397
     0.65578434      0.29066655      0.40166622
     0.67554853      0.31210344      0.72617291
     0.64279652      0.80499908      0.02313517
     0.62335653      0.77757848      0.37343863
     0.62602224      0.78468662      0.68884781
     0.09906615      0.21258598      0.23932395
     0.13260698      0.20698053      0.57265728
     0.10935869      0.26349181      0.90599061
     0.09706375      0.69390551      0.21110977
     0.06066682      0.66605985      0.54444310
     0.07162777      0.68299994      0.87777643
     0.57529307      0.22247953      0.23866154
     0.59418367      0.22867050      0.57199487
     0.60039426      0.25897229      0.92635413
     0.59929655      0.68002852      0.21044736
     0.59126554      0.66206835      0.54378069
     0.57018956      0.73997083      0.87711403
