Generated structure
1.0
    11.33032670      0.00000000      0.00000000
     0.00000000     11.33032670      0.00000000
     0.00000000      0.00000000     11.33032670
Fe Ge
48 48
Direct
     0.09293081      0.12800951      0.09321160
     0.13484737      0.11613571      0.43997368
     0.08101913      0.08709814      0.75493389
     0.09225625      0.56033746      0.07350787
     0.10675383      0.58968531      0.40975820
     0.13801108      0.57774438      0.74777216
     0.57333143      0.10401382      0.08460662
     0.60635386      0.09622923      0.38131366
     0.51746075      0.06581113      0.71403044
     0.50530496      0.57694206      0.04481954
     0.57973554      0.58408316      0.37112487
     0.66210627      0.57468100      0.70093753
     0.15214268      0.41785826      0.20799920
     0.13915122      0.44228755      0.55979561
     0.20255792      0.45251069      0.86722147
     0.21440238      0.92869055      0.18942222
     0.16908180      0.89659626      0.52202016
     0.16802739      0.98733310      0.87845732
     0.65928825      0.43570428      0.20718672
     0.70397488      0.43158831      0.55401956
     0.70491837      0.45661047      0.85698273
     0.70927119      0.89605636      0.19643869
     0.63657147      0.95393857      0.53275091
     0.63431537      0.97940169      0.88453537
     0.33523718      0.24662548      0.27456709
     0.34574891      0.26963020      0.62254619
     0.31964025      0.26746660      0.95399234
     0.30345475      0.67799740      0.30028946
     0.29749054      0.72688881      0.61223181
     0.35549083      0.63449157      0.99277893
     0.83705934      0.24584788      0.31861082
     0.83151516      0.21125920      0.60987024
     0.81370625      0.21531982      0.94904040
     0.79535138      0.71578138      0.27926932
     0.84622554      0.69341040      0.61339449
     0.81738678      0.70561259      0.95377923
     0.41696286      0.30977450      0.11587807
     0.40400748      0.28453712      0.45897994
     0.44893845      0.28275606      0.78198799
     0.41970924      0.78327905      0.12500172
     0.38934062      0.79485789      0.43977010
     0.46298779      0.76039064      0.77931397
     0.88354463      0.38160440      0.09005640
     0.86685659      0.31401335      0.42787751
     0.92051927      0.23793548      0.75916295
     0.89071330      0.81263094      0.07712171
     0.83571343      0.87505313      0.41304647
     0.92954811      0.71846729      0.75588519
     0.44574336      0.42872032      0.30516523
     0.37018776      0.40212864      0.62634195
     0.42447391      0.46092018      0.96004914
     0.42193743      0.90107476      0.29920955
     0.48849857      0.94907820      0.61729313
     0.45831917      0.98084259      0.97465127
     0.93880755      0.41911912      0.29200123
     0.89834162      0.45098439      0.61848057
     0.94207119      0.46951965      0.95375442
     0.93304725      0.98202257      0.32529902
     0.00233338      0.00652472      0.65060292
     0.94984326      0.01097145      0.97656965
     0.33551814      0.16294847      0.11864832
     0.33409584      0.11427756      0.41886764
     0.32270373      0.02377831      0.77131116
     0.31810362      0.58290044      0.08679783
     0.40060465      0.66586557      0.42686275
     0.35868842      0.59783820      0.78000321
     0.78393322      0.06275578      0.07737830
     0.82767806      0.05170402      0.40577936
     0.79511793      0.95142629      0.73234812
     0.80094994      0.57795179      0.09085672
     0.80411195      0.53875123      0.43603509
     0.79705965      0.49805909      0.72945435
     0.17068060      0.40910114      0.07705790
     0.19481739      0.26402349      0.45290015
     0.19141159      0.35480617      0.76099370
     0.16122389      0.84162736      0.05045323
     0.15506827      0.81284087      0.39179302
     0.14353445      0.87597440      0.68333443
     0.68636006      0.34840769      0.04634178
     0.68824955      0.25702399      0.37606306
     0.66700170      0.30450362      0.74262501
     0.66267031      0.81064345      0.03964998
     0.62899555      0.76019557      0.37927921
     0.60668253      0.78669271      0.68905470
     0.08652695      0.22898056      0.28544846
     0.12204187      0.22043846      0.58495674
     0.10636567      0.24215877      0.90589634
     0.13885422      0.72473885      0.18923201
     0.08578897      0.65300526      0.53847336
     0.04599305      0.66552170      0.87702465
     0.60469215      0.23523746      0.26536357
     0.56789252      0.24166401      0.56742318
     0.60483716      0.24746660      0.90292998
     0.61569283      0.68154511      0.20777416
     0.62498632      0.66329464      0.52642083
     0.54822276      0.71570930      0.85857510
