generated by phonopy
1.0
    11.3303266988540994    0.0000000000000000    0.0000000000000000
     0.0000000000000000   11.3303266988540994    0.0000000000000000
     0.0000000000000000    0.0000000000000000   11.3303266988540994
   Fe   Ge
   48   48
Direct
     0.067136689         0.067136689         0.044757793
     0.067136689         0.067136689         0.378091126
     0.067136689         0.067136689         0.711424459
     0.067136689         0.567136689         0.044757793
     0.067136689         0.567136689         0.378091126
     0.067136689         0.567136689         0.711424459
     0.567136689         0.067136689         0.044757793
     0.567136689         0.067136689         0.378091126
     0.567136689         0.067136689         0.711424459
     0.567136689         0.567136689         0.044757793
     0.567136689         0.567136689         0.378091126
     0.567136689         0.567136689         0.711424459
     0.182863311         0.432863311         0.211424459
     0.182863311         0.432863311         0.544757793
     0.182863311         0.432863311         0.878091126
     0.182863311         0.932863311         0.211424459
     0.182863311         0.932863311         0.544757793
     0.182863311         0.932863311         0.878091126
     0.682863311         0.432863311         0.211424459
     0.682863311         0.432863311         0.544757793
     0.682863311         0.432863311         0.878091126
     0.682863311         0.932863311         0.211424459
     0.682863311         0.932863311         0.544757793
     0.682863311         0.932863311         0.878091126
     0.317136689         0.182863311         0.288575541
     0.317136689         0.182863311         0.621908874
     0.317136689         0.182863311         0.955242207
     0.317136689         0.682863311         0.288575541
     0.317136689         0.682863311         0.621908874
     0.317136689         0.682863311         0.955242207
     0.817136689         0.182863311         0.288575541
     0.817136689         0.182863311         0.621908874
     0.817136689         0.182863311         0.955242207
     0.817136689         0.682863311         0.288575541
     0.817136689         0.682863311         0.621908874
     0.817136689         0.682863311         0.955242207
     0.432863311         0.317136689         0.121908874
     0.432863311         0.317136689         0.455242207
     0.432863311         0.317136689         0.788575541
     0.432863311         0.817136689         0.121908874
     0.432863311         0.817136689         0.455242207
     0.432863311         0.817136689         0.788575541
     0.932863311         0.317136689         0.121908874
     0.932863311         0.317136689         0.455242207
     0.932863311         0.317136689         0.788575541
     0.932863311         0.817136689         0.121908874
     0.932863311         0.817136689         0.455242207
     0.932863311         0.817136689         0.788575541
     0.420773396         0.420773396         0.280515598
     0.420773396         0.420773396         0.613848931
     0.420773396         0.420773396         0.947182264
     0.420773396         0.920773396         0.280515598
     0.420773396         0.920773396         0.613848931
     0.420773396         0.920773396         0.947182264
     0.920773396         0.420773396         0.280515598
     0.920773396         0.420773396         0.613848931
     0.920773396         0.420773396         0.947182264
     0.920773396         0.920773396         0.280515598
     0.920773396         0.920773396         0.613848931
     0.920773396         0.920773396         0.947182264
     0.329226604         0.079226604         0.113848931
     0.329226604         0.079226604         0.447182264
     0.329226604         0.079226604         0.780515598
     0.329226604         0.579226604         0.113848931
     0.329226604         0.579226604         0.447182264
     0.329226604         0.579226604         0.780515598
     0.829226604         0.079226604         0.113848931
     0.829226604         0.079226604         0.447182264
     0.829226604         0.079226604         0.780515598
     0.829226604         0.579226604         0.113848931
     0.829226604         0.579226604         0.447182264
     0.829226604         0.579226604         0.780515598
     0.170773396         0.329226604         0.052817736
     0.170773396         0.329226604         0.386151069
     0.170773396         0.329226604         0.719484402
     0.170773396         0.829226604         0.052817736
     0.170773396         0.829226604         0.386151069
     0.170773396         0.829226604         0.719484402
     0.670773396         0.329226604         0.052817736
     0.670773396         0.329226604         0.386151069
     0.670773396         0.329226604         0.719484402
     0.670773396         0.829226604         0.052817736
     0.670773396         0.829226604         0.386151069
     0.670773396         0.829226604         0.719484402
     0.079226604         0.170773396         0.219484402
     0.079226604         0.170773396         0.552817736
     0.079226604         0.170773396         0.886151069
     0.079226604         0.670773396         0.219484402
     0.079226604         0.670773396         0.552817736
     0.079226604         0.670773396         0.886151069
     0.579226604         0.170773396         0.219484402
     0.579226604         0.170773396         0.552817736
     0.579226604         0.170773396         0.886151069
     0.579226604         0.670773396         0.219484402
     0.579226604         0.670773396         0.552817736
     0.579226604         0.670773396         0.886151069
