  Built with Packmol
   1.00000000000000
    11.3303266988540994    0.0000000000000000    0.0000000000000000
     0.0000000000000000   11.3303266988540994    0.0000000000000000
     0.0000000000000000    0.0000000000000000   11.3303266988540994
   Fe   Ge
    48    48
Direct
  0.1432521391696119  0.6336853772503496  0.4039345625185543
  0.9334066467849307  0.1441103790756669  0.5991181597271972
  0.9460402650646424  0.9425995736701756  0.6373297669722586
  0.4727643604571541  0.3753235251466086  0.7623809225674841
  0.5128715583822594  0.0564329344081089  0.1072758569610178
  0.1446075658639816  0.1188119405448047  0.7003440208267960
  0.0518533367152130  0.3149451880804123  0.2346880389550933
  0.7337240434650284  0.5516518837708970  0.0574862124926028
  0.7663673979768965  0.8168227685571676  0.5553250587796876
  0.6907356130552261  0.9531000248723261  0.2102675365293207
  0.4820952174251630  0.0078453213213986  0.8776597443906501
  0.7103670989433623  0.0218302202850435  0.8121915170686327
  0.9856817416008502  0.7878067816017578  0.4897575774132968
  0.9638310099568625  0.2758132788768754  0.7581067115933304
  0.7342499112382420  0.7703253375508122  0.0301729262432627
  0.7415274725136064  0.2175933165049041  0.4941201120580450
  0.6742300742265832  0.4977234361896377  0.7179970937204905
  0.5555707128941398  0.5923394573319066  0.3815408538487272
  0.7456041341691313  0.5456985761538159  0.3087916172774653
  0.1910354241678497  0.8958703726253312  0.5614034170950756
  0.5855174968863143  0.1557394697891846  0.3051271299609354
  0.0128652501619660  0.7768044283948363  0.2963137500136304
  0.3457095593017341  0.6884838987160269  0.5160096412170360
  0.8724841233238495  0.3970893164050269  0.4020863194363233
  0.4001214119262475  0.9244482865444459  0.4806201805973759
  0.7096453282855343  0.1514183834667578  0.1251406460935736
  0.6291754095902843  0.1309119210934284  0.9486793297971974
  0.9854506911719884  0.3298867143388426  0.9866518747920432
  0.3333355423288199  0.5165869957752200  0.1329075724164228
  0.5691549257682175  0.9342685749729672  0.6633360159762568
  0.9345220601174121  0.5393658730551770  0.0041651846208964
  0.9015101067484361  0.8778628027864830  0.1430914345081223
  0.8147049952883043  0.4121983635069666  0.8582109807973907
  0.4569660791753318  0.2305787401050426  0.9272907970796208
  0.2915333640360055  0.9970097525178689  0.2330983715756025
  0.6468510338384356  0.3023743803467529  0.8387939306072867
  0.4328199762817874  0.5844433964668978  0.7840035268237576
  0.3701668084474388  0.0073539782340020  0.6849427383531621
  0.5402335941881448  0.1401305630106000  0.7333622690791500
  0.8165037825216925  0.6373414312452365  0.8578235637031512
  0.8235626484127923  0.1839259492541097  0.9259328697627299
  0.8644845836451069  0.6784998986947369  0.1766950128806082
  0.1598229112579121  0.7963509599281102  0.9611554776909185
  0.3338532724779981  0.9130214167269878  0.0585362709296878
  0.4551380659781357  0.3819030806594825  0.2957920821812828
  0.0462463500673257  0.6589326833175572  0.8052424036093362
  0.7673647443381950  0.1935978790124828  0.7183388994678682
  0.9644746200614067  0.1803525799268485  0.4069932394244118
  0.0877507481632884  0.8605456296488512  0.7547221938120479
  0.0407767998289837  0.9915195614373385  0.4588131847559055
  0.7513728320760968  0.0216745736526321  0.5898530044925943
  0.2689637887182259  0.0924919716110577  0.5323216681755315
  0.4973558321071456  0.9583713807749268  0.3046483815034650
  0.6004191610037748  0.3141870450467287  0.6130341658234632
  0.9009378167357215  0.7120237024822355  0.6740320794421456
  0.8863677221688649  0.4468471723082722  0.1946903276585083
  0.1433544191669085  0.4303676780950177  0.0692394921265148
  0.8344388439478332  0.3767070802775455  0.6161799356433946
  0.0285778437409193  0.4588639862964053  0.8150397347458138
  0.9292503356961563  0.0620219663709435  0.8022003406372760
  0.8137348237432616  0.8576659007381114  0.3585743151471717
  0.3993149097958378  0.4538294588559208  0.9415654034301323
  0.9471217839889561  0.7458781361861350  0.9780981146440259
  0.3795976377270800  0.1777310533437477  0.3455375316919966
  0.3128669412081400  0.1242898469910295  0.0369418151972126
  0.6094746192337018  0.6018347214654575  0.8945181004826164
  0.3376879226576933  0.2091836210703301  0.7432923891449210
  0.7191816755613853  0.3478765341721965  0.0371147920024111
  0.6401224309342123  0.7294487091820073  0.2351495987125073
  0.1527290500697292  0.6750573908951437  0.6053030110702373
  0.5546600697651649  0.7858502672368960  0.4864339429426800
  0.1147428392609687  0.1959429046384235  0.9116080829360410
  0.0807795997092697  0.4260628623790503  0.4211768363445076
  0.5335941437710160  0.0861932476723512  0.5165561929835477
  0.5129934056298250  0.2636826348956472  0.1357288675968318
  0.9185554896277743  0.1917049078962950  0.1346507090830515
  0.4781362327379516  0.5274193024172940  0.5764947154719361
  0.7124859460112467  0.5995091734324663  0.5364702427900873
  0.5511152963547291  0.5205930631689317  0.1615353274786164
  0.2494635222581681  0.6404723035157729  0.8585733190901730
  0.1139021753137864  0.9075423231654857  0.1381781610974572
  0.4121429768980115  0.7897953887763384  0.6977735433994017
  0.5377670385320846  0.8712730249775095  0.0177917176178338
  0.9308856958511753  0.6064161616300452  0.3955921621082194
  0.3512543837661687  0.5860335891101232  0.3312863676463861
  0.6491689716576053  0.3663335636625189  0.3652025870302385
  0.2500694541303849  0.3609969911242432  0.2571238410722453
  0.2807199159228493  0.9438568950495854  0.8587230201529346
  0.6972101524459425  0.7992165132256284  0.7887906429023097
  0.3183841006922878  0.7054471715359418  0.0806632830994298
  0.2276660387916192  0.8298020543888546  0.3609199814436637
  0.1366753707150480  0.1317916141057762  0.2892526640598761
  0.7939985155531307  0.9810737792951805  0.0007673521570433
  0.7887132412717476  0.1059946471074936  0.3223077654428219
  0.0947978372261219  0.2818621905100462  0.5930897233699186
  0.0849368652472177  0.6506705154170159  0.1387695727768368
