Generated structure
1.0
    11.33032670      0.00000000      0.00000000
     0.00000000     11.33032670      0.00000000
     0.00000000      0.00000000     11.33032670
Fe Ge
48 48
Direct
     0.09860361      0.12241268      0.11525752
     0.12728472      0.11623392      0.43423870
     0.09114172      0.08116796      0.75904325
     0.10406061      0.56432879      0.07099829
     0.10234391      0.58500121      0.40536398
     0.14214832      0.59225936      0.73898342
     0.57451036      0.11534163      0.09094283
     0.61377005      0.09882569      0.38572974
     0.50587307      0.06482115      0.71177127
     0.50930784      0.57074760      0.04477277
     0.57468482      0.59278212      0.37323550
     0.65476362      0.57764430      0.70108537
     0.14587721      0.41488066      0.20675178
     0.13981634      0.44993126      0.54464240
     0.21185798      0.44536598      0.86855375
     0.22752424      0.93495532      0.19943925
     0.17323147      0.89708682      0.53410135
     0.17012643      0.99184815      0.87516786
     0.65176065      0.44531374      0.20140591
     0.70237992      0.42310428      0.55288307
     0.71291055      0.45421265      0.85566103
     0.71375106      0.89977794      0.19260794
     0.62600796      0.95909492      0.53333099
     0.62165345      0.96833262      0.88346048
     0.33156162      0.24528408      0.26522662
     0.34236514      0.28115605      0.63119837
     0.32959601      0.25977228      0.95646201
     0.30826934      0.66313561      0.28939710
     0.30383269      0.72741669      0.61538299
     0.36291041      0.62883318      0.98538958
     0.83685725      0.23703911      0.32110920
     0.83063013      0.20256031      0.59685863
     0.83557795      0.21105150      0.94533756
     0.79227768      0.70668875      0.27823495
     0.84024626      0.69766496      0.61609194
     0.82472715      0.69600693      0.94855090
     0.41328314      0.30239986      0.11552184
     0.39908852      0.29425373      0.45682434
     0.45502153      0.27720996      0.78715997
     0.42365544      0.77838882      0.10668391
     0.38983535      0.78336966      0.43269562
     0.46352419      0.76712826      0.78811254
     0.87055451      0.38709463      0.07394691
     0.85565332      0.31879803      0.42387263
     0.91359941      0.22671957      0.75398207
     0.89971891      0.80955984      0.07887669
     0.82763026      0.85832504      0.42150803
     0.92344205      0.72677972      0.75630100
     0.45447109      0.43389302      0.30963155
     0.37756483      0.41038451      0.62168313
     0.43345181      0.45263658      0.96244722
     0.42898016      0.90270343      0.30383805
     0.48673914      0.92999075      0.61542434
     0.45637162      0.98401620      0.97017580
     0.93857917      0.40784119      0.28573934
     0.90081361      0.46155451      0.62636198
     0.92042497      0.45534965      0.94610651
     0.93377062      0.00578691      0.32927212
     0.00516790      0.02099456      0.64883441
     0.94252938      0.99638095      0.97210200
     0.34754842      0.16191261      0.13326822
     0.33301404      0.13365586      0.42405514
     0.32943416      0.01415472      0.76298660
     0.30667301      0.58156387      0.07827488
     0.39530864      0.68069147      0.42278941
     0.35673957      0.58277243      0.78002443
     0.78488987      0.07191608      0.08767305
     0.82781056      0.06276730      0.40799355
     0.78655748      0.94746280      0.72178984
     0.80541048      0.59990757      0.09922518
     0.79429040      0.52725616      0.41974960
     0.79594823      0.50276233      0.73737738
     0.16630868      0.40892067      0.06712070
     0.18370819      0.25801681      0.44875359
     0.18360080      0.34108740      0.76234715
     0.16130407      0.84205417      0.04220675
     0.15633750      0.81385742      0.38634330
     0.13207363      0.88444560      0.66736314
     0.68121231      0.34306431      0.04231764
     0.68582223      0.25627076      0.37775614
     0.65667641      0.31765159      0.73425317
     0.66460406      0.80628124      0.02912062
     0.62688947      0.76320341      0.36596083
     0.61140193      0.78374930      0.69503654
     0.09076741      0.22943418      0.28325849
     0.12207296      0.22159808      0.59469611
     0.09867680      0.25923758      0.90168971
     0.14043991      0.73215587      0.18381107
     0.10073051      0.64535316      0.54707006
     0.03769014      0.66258759      0.89087464
     0.58823658      0.22787026      0.26593942
     0.57623588      0.23517120      0.58250929
     0.60321925      0.24349793      0.90925779
     0.61862739      0.68009275      0.20718949
     0.62822240      0.66174633      0.52476893
     0.53772368      0.71459871      0.85707232
